outputs/case_429.model.txt
compliance_officer_training_hours = 15
broker_company_extension_once = False
is_notary = False
avg_annual_onjob_training_hours = 16
rate_level_reasonable = False
days_before_stop_period_expiry_to_apply = 0
retention_rate_layer = 1
guarantee = True
aviation = False
broker_company_stop_period_years = 0
broker_company_or_bank_cancel_qualification = True
broker_company_stop_reported = False
broker_company_resume_reported = True
liability = True
broker_company_extension_applied = False
next_year_restriction_on_senior_clients = True
insurance_type = 1
exclusive_reinsurance = False
is_not_broker = False
bank_broker_terminate_reported = True
temporary_reinsurance_out_arranged = False
bank_broker_license_revoked = False
is_not_notary = True
policy_issuance_fee_rate = 1/2
temporary_reinsurance_in_arranged = False
bank_broker_stop_reported = False
retention_rate = 1
is_agent = False
broker_company_dissolve_reported = False
avg_annual_legal_course_hours_last_2_years = 8
fee_disclosed_clearly = True
broker_appointed_per_rule = True
bank_broker_business_license_canceled = True
broker_company_license_revoked = False
is_broker = True
weighted_avg_reinsurance_rate_same_layer = 5/2
higher_layer_rate = 417/100
nuclear = False
broker_license_canceled = True
reinsurance_rate = 2
fee_charged = True
days_to_cancel_broker_license = 0
related_insurance_purchased = True
property_insurance_retention_rate_nonproportional_reinsurance = 0
license_permitted = True
broker_duty_of_care_and_fidelity = True
individual_broker_education_training_hours = 1
broker_annual_education_training_for_fair_treatment_of_seniors = 1
bank_broker_stop_terminate_or_license_revoked_and_broker_not_canceled = False
broker_company_must_cancel_broker_license_on_stop_or_dissolve = True
guarantee_deposited = True
broker_not_participate_fair_treatment_training_restriction = True
broker_exercised_duty_of_care = True
broker_company_must_appoint_broker_on_resume = True
written_analysis_report_provided = True
property_insurance_no_temporary_reinsurance_after_temporary_reinsurance_out = True
broker_fulfilled_fiduciary_duty = True
license_held = True
bank_must_report_stop_or_terminate_broker_business = True
compliance_officer_education_training_hours = 1
reinsurance_rate_adequate_and_reasonable = True
broker_company_stop_or_dissolve_or_license_revoked_and_broker_not_canceled = False
property_insurance_reinsurance_rate_compliance = True
broker_company_must_report_stop_resume_dissolve = True
property_insurance_reinsurance_rate_violation_penalty = False
fair_treatment_training_passed = True
agent_broker_not_permitted_without_license_and_guarantee = True
property_insurance_retention_rate_proportional_reinsurance = 0
penalty = False
related_insurance_type_correct = True
broker_must_cancel_license_within_30_days_after_company_stop_dissolve_or_license_revoked = True
broker_provide_written_report_and_disclose_fee = True
bank_must_cancel_broker_license_on_stop_or_terminate = True
broker_company_stop_period_limit_and_extension = True